p cnf 469 2506
6 0
11 0
16 0
21 0
12 0
17 0
22 0
18 0
23 0
24 0
-6 -12 11 0
-6 -17 16 0
-6 -22 21 0
-11 -8 6 0
-11 -18 16 0
-11 -23 21 0
-16 -9 6 0
-16 -14 11 0
-16 -24 21 0
-21 -10 6 0
-21 -15 11 0
-21 -20 16 0
-2 -11 12 0
-2 -16 17 0
-2 -21 22 0
-12 -3 2 0
-12 -18 17 0
-12 -23 22 0
-17 -4 2 0
-17 -14 12 0
-17 -24 22 0
-22 -5 2 0
-22 -15 12 0
-22 -20 17 0
-3 -6 8 0
-3 -16 18 0
-3 -21 23 0
-8 -2 3 0
-8 -17 18 0
-8 -22 23 0
-18 -4 3 0
-18 -9 8 0
-18 -24 23 0
-23 -5 3 0
-23 -10 8 0
-23 -20 18 0
-4 -6 9 0
-4 -11 14 0
-4 -21 24 0
-9 -2 4 0
-9 -12 14 0
-9 -22 24 0
-14 -3 4 0
-14 -8 9 0
-14 -23 24 0
-24 -5 4 0
-24 -10 9 0
-24 -15 14 0
-5 -6 10 0
-5 -11 15 0
-5 -16 20 0
-10 -2 5 0
-10 -12 15 0
-10 -17 20 0
-15 -3 5 0
-15 -8 10 0
-15 -18 20 0
-20 -4 5 0
-20 -9 10 0
-20 -14 15 0
-31 -37 36 0
-31 -42 41 0
-31 -47 46 0
-36 -33 31 0
-36 -43 41 0
-36 -48 46 0
-41 -34 31 0
-41 -39 36 0
-41 -49 46 0
-46 -35 31 0
-46 -40 36 0
-46 -45 41 0
-27 -36 37 0
-27 -41 42 0
-27 -46 47 0
-37 -28 27 0
-37 -43 42 0
-37 -48 47 0
-42 -29 27 0
-42 -39 37 0
-42 -49 47 0
-47 -30 27 0
-47 -40 37 0
-47 -45 42 0
-28 -31 33 0
-28 -41 43 0
-28 -46 48 0
-33 -27 28 0
-33 -42 43 0
-33 -47 48 0
-43 -29 28 0
-43 -34 33 0
-43 -49 48 0
-48 -30 28 0
-48 -35 33 0
-48 -45 43 0
-29 -31 34 0
-29 -36 39 0
-29 -46 49 0
-34 -27 29 0
-34 -37 39 0
-34 -47 49 0
-39 -28 29 0
-39 -33 34 0
-39 -48 49 0
-49 -30 29 0
-49 -35 34 0
-49 -40 39 0
-30 -31 35 0
-30 -36 40 0
-30 -41 45 0
-35 -27 30 0
-35 -37 40 0
-35 -42 45 0
-40 -28 30 0
-40 -33 35 0
-40 -43 45 0
-45 -29 30 0
-45 -34 35 0
-45 -39 40 0
-56 -62 61 0
-56 -67 66 0
-56 -72 71 0
-61 -58 56 0
-61 -68 66 0
-61 -73 71 0
-66 -59 56 0
-66 -64 61 0
-66 -74 71 0
-71 -60 56 0
-71 -65 61 0
-71 -70 66 0
-52 -61 62 0
-52 -66 67 0
-52 -71 72 0
-62 -53 52 0
-62 -68 67 0
-62 -73 72 0
-67 -54 52 0
-67 -64 62 0
-67 -74 72 0
-72 -55 52 0
-72 -65 62 0
-72 -70 67 0
-53 -56 58 0
-53 -66 68 0
-53 -71 73 0
-58 -52 53 0
-58 -67 68 0
-58 -72 73 0
-68 -54 53 0
-68 -59 58 0
-68 -74 73 0
-73 -55 53 0
-73 -60 58 0
-73 -70 68 0
-54 -56 59 0
-54 -61 64 0
-54 -71 74 0
-59 -52 54 0
-59 -62 64 0
-59 -72 74 0
-64 -53 54 0
-64 -58 59 0
-64 -73 74 0
-74 -55 54 0
-74 -60 59 0
-74 -65 64 0
-55 -56 60 0
-55 -61 65 0
-55 -66 70 0
-60 -52 55 0
-60 -62 65 0
-60 -67 70 0
-65 -53 55 0
-65 -58 60 0
-65 -68 70 0
-70 -54 55 0
-70 -59 60 0
-70 -64 65 0
-81 -87 86 0
-81 -92 91 0
-81 -97 96 0
-86 -83 81 0
-86 -93 91 0
-86 -98 96 0
-91 -84 81 0
-91 -89 86 0
-91 -99 96 0
-96 -85 81 0
-96 -90 86 0
-96 -95 91 0
-77 -86 87 0
-77 -91 92 0
-77 -96 97 0
-87 -78 77 0
-87 -93 92 0
-87 -98 97 0
-92 -79 77 0
-92 -89 87 0
-92 -99 97 0
-97 -80 77 0
-97 -90 87 0
-97 -95 92 0
-78 -81 83 0
-78 -91 93 0
-78 -96 98 0
-83 -77 78 0
-83 -92 93 0
-83 -97 98 0
-93 -79 78 0
-93 -84 83 0
-93 -99 98 0
-98 -80 78 0
-98 -85 83 0
-98 -95 93 0
-79 -81 84 0
-79 -86 89 0
-79 -96 99 0
-84 -77 79 0
-84 -87 89 0
-84 -97 99 0
-89 -78 79 0
-89 -83 84 0
-89 -98 99 0
-99 -80 79 0
-99 -85 84 0
-99 -90 89 0
-80 -81 85 0
-80 -86 90 0
-80 -91 95 0
-85 -77 80 0
-85 -87 90 0
-85 -92 95 0
-90 -78 80 0
-90 -83 85 0
-90 -93 95 0
-95 -79 80 0
-95 -84 85 0
-95 -89 90 0
-106 -112 111 0
-106 -117 116 0
-106 -122 121 0
-111 -108 106 0
-111 -118 116 0
-111 -123 121 0
-116 -109 106 0
-116 -114 111 0
-116 -124 121 0
-121 -110 106 0
-121 -115 111 0
-121 -120 116 0
-102 -111 112 0
-102 -116 117 0
-102 -121 122 0
-112 -103 102 0
-112 -118 117 0
-112 -123 122 0
-117 -104 102 0
-117 -114 112 0
-117 -124 122 0
-122 -105 102 0
-122 -115 112 0
-122 -120 117 0
-103 -106 108 0
-103 -116 118 0
-103 -121 123 0
-108 -102 103 0
-108 -117 118 0
-108 -122 123 0
-118 -104 103 0
-118 -109 108 0
-118 -124 123 0
-123 -105 103 0
-123 -110 108 0
-123 -120 118 0
-104 -106 109 0
-104 -111 114 0
-104 -121 124 0
-109 -102 104 0
-109 -112 114 0
-109 -122 124 0
-114 -103 104 0
-114 -108 109 0
-114 -123 124 0
-124 -105 104 0
-124 -110 109 0
-124 -115 114 0
-105 -106 110 0
-105 -111 115 0
-105 -116 120 0
-110 -102 105 0
-110 -112 115 0
-110 -117 120 0
-115 -103 105 0
-115 -108 110 0
-115 -118 120 0
-120 -104 105 0
-120 -109 110 0
-120 -114 115 0
-131 -137 136 0
-131 -142 141 0
-131 -147 146 0
-136 -133 131 0
-136 -143 141 0
-136 -148 146 0
-141 -134 131 0
-141 -139 136 0
-141 -149 146 0
-146 -135 131 0
-146 -140 136 0
-146 -145 141 0
-127 -136 137 0
-127 -141 142 0
-127 -146 147 0
-137 -128 127 0
-137 -143 142 0
-137 -148 147 0
-142 -129 127 0
-142 -139 137 0
-142 -149 147 0
-147 -130 127 0
-147 -140 137 0
-147 -145 142 0
-128 -131 133 0
-128 -141 143 0
-128 -146 148 0
-133 -127 128 0
-133 -142 143 0
-133 -147 148 0
-143 -129 128 0
-143 -134 133 0
-143 -149 148 0
-148 -130 128 0
-148 -135 133 0
-148 -145 143 0
-129 -131 134 0
-129 -136 139 0
-129 -146 149 0
-134 -127 129 0
-134 -137 139 0
-134 -147 149 0
-139 -128 129 0
-139 -133 134 0
-139 -148 149 0
-149 -130 129 0
-149 -135 134 0
-149 -140 139 0
-130 -131 135 0
-130 -136 140 0
-130 -141 145 0
-135 -127 130 0
-135 -137 140 0
-135 -142 145 0
-140 -128 130 0
-140 -133 135 0
-140 -143 145 0
-145 -129 130 0
-145 -134 135 0
-145 -139 140 0
-156 -162 161 0
-156 -167 166 0
-156 -172 171 0
-161 -158 156 0
-161 -168 166 0
-161 -173 171 0
-166 -159 156 0
-166 -164 161 0
-166 -174 171 0
-171 -160 156 0
-171 -165 161 0
-171 -170 166 0
-152 -161 162 0
-152 -166 167 0
-152 -171 172 0
-162 -153 152 0
-162 -168 167 0
-162 -173 172 0
-167 -154 152 0
-167 -164 162 0
-167 -174 172 0
-172 -155 152 0
-172 -165 162 0
-172 -170 167 0
-153 -156 158 0
-153 -166 168 0
-153 -171 173 0
-158 -152 153 0
-158 -167 168 0
-158 -172 173 0
-168 -154 153 0
-168 -159 158 0
-168 -174 173 0
-173 -155 153 0
-173 -160 158 0
-173 -170 168 0
-154 -156 159 0
-154 -161 164 0
-154 -171 174 0
-159 -152 154 0
-159 -162 164 0
-159 -172 174 0
-164 -153 154 0
-164 -158 159 0
-164 -173 174 0
-174 -155 154 0
-174 -160 159 0
-174 -165 164 0
-155 -156 160 0
-155 -161 165 0
-155 -166 170 0
-160 -152 155 0
-160 -162 165 0
-160 -167 170 0
-165 -153 155 0
-165 -158 160 0
-165 -168 170 0
-170 -154 155 0
-170 -159 160 0
-170 -164 165 0
-181 -187 186 0
-181 -192 191 0
-181 -197 196 0
-186 -183 181 0
-186 -193 191 0
-186 -198 196 0
-191 -184 181 0
-191 -189 186 0
-191 -199 196 0
-196 -185 181 0
-196 -190 186 0
-196 -195 191 0
-177 -186 187 0
-177 -191 192 0
-177 -196 197 0
-187 -178 177 0
-187 -193 192 0
-187 -198 197 0
-192 -179 177 0
-192 -189 187 0
-192 -199 197 0
-197 -180 177 0
-197 -190 187 0
-197 -195 192 0
-178 -181 183 0
-178 -191 193 0
-178 -196 198 0
-183 -177 178 0
-183 -192 193 0
-183 -197 198 0
-193 -179 178 0
-193 -184 183 0
-193 -199 198 0
-198 -180 178 0
-198 -185 183 0
-198 -195 193 0
-179 -181 184 0
-179 -186 189 0
-179 -196 199 0
-184 -177 179 0
-184 -187 189 0
-184 -197 199 0
-189 -178 179 0
-189 -183 184 0
-189 -198 199 0
-199 -180 179 0
-199 -185 184 0
-199 -190 189 0
-180 -181 185 0
-180 -186 190 0
-180 -191 195 0
-185 -177 180 0
-185 -187 190 0
-185 -192 195 0
-190 -178 180 0
-190 -183 185 0
-190 -193 195 0
-195 -179 180 0
-195 -184 185 0
-195 -189 190 0
-206 -212 211 0
-206 -217 216 0
-206 -222 221 0
-211 -208 206 0
-211 -218 216 0
-211 -223 221 0
-216 -209 206 0
-216 -214 211 0
-216 -224 221 0
-221 -210 206 0
-221 -215 211 0
-221 -220 216 0
-202 -211 212 0
-202 -216 217 0
-202 -221 222 0
-212 -203 202 0
-212 -218 217 0
-212 -223 222 0
-217 -204 202 0
-217 -214 212 0
-217 -224 222 0
-222 -205 202 0
-222 -215 212 0
-222 -220 217 0
-203 -206 208 0
-203 -216 218 0
-203 -221 223 0
-208 -202 203 0
-208 -217 218 0
-208 -222 223 0
-218 -204 203 0
-218 -209 208 0
-218 -224 223 0
-223 -205 203 0
-223 -210 208 0
-223 -220 218 0
-204 -206 209 0
-204 -211 214 0
-204 -221 224 0
-209 -202 204 0
-209 -212 214 0
-209 -222 224 0
-214 -203 204 0
-214 -208 209 0
-214 -223 224 0
-224 -205 204 0
-224 -210 209 0
-224 -215 214 0
-205 -206 210 0
-205 -211 215 0
-205 -216 220 0
-210 -202 205 0
-210 -212 215 0
-210 -217 220 0
-215 -203 205 0
-215 -208 210 0
-215 -218 220 0
-220 -204 205 0
-220 -209 210 0
-220 -214 215 0
6 2 0
-6 -2 0
11 3 0
-11 -3 0
16 4 0
-16 -4 0
21 5 0
-21 -5 0
2 6 0
-2 -6 0
12 8 0
-12 -8 0
17 9 0
-17 -9 0
22 10 0
-22 -10 0
3 11 0
-3 -11 0
8 12 0
-8 -12 0
18 14 0
-18 -14 0
23 15 0
-23 -15 0
4 16 0
-4 -16 0
9 17 0
-9 -17 0
14 18 0
-14 -18 0
24 20 0
-24 -20 0
5 21 0
-5 -21 0
10 22 0
-10 -22 0
15 23 0
-15 -23 0
20 24 0
-20 -24 0
31 27 0
-31 -27 0
36 28 0
-36 -28 0
41 29 0
-41 -29 0
46 30 0
-46 -30 0
27 31 0
-27 -31 0
37 33 0
-37 -33 0
42 34 0
-42 -34 0
47 35 0
-47 -35 0
28 36 0
-28 -36 0
33 37 0
-33 -37 0
43 39 0
-43 -39 0
48 40 0
-48 -40 0
29 41 0
-29 -41 0
34 42 0
-34 -42 0
39 43 0
-39 -43 0
49 45 0
-49 -45 0
30 46 0
-30 -46 0
35 47 0
-35 -47 0
40 48 0
-40 -48 0
45 49 0
-45 -49 0
56 52 0
-56 -52 0
61 53 0
-61 -53 0
66 54 0
-66 -54 0
71 55 0
-71 -55 0
52 56 0
-52 -56 0
62 58 0
-62 -58 0
67 59 0
-67 -59 0
72 60 0
-72 -60 0
53 61 0
-53 -61 0
58 62 0
-58 -62 0
68 64 0
-68 -64 0
73 65 0
-73 -65 0
54 66 0
-54 -66 0
59 67 0
-59 -67 0
64 68 0
-64 -68 0
74 70 0
-74 -70 0
55 71 0
-55 -71 0
60 72 0
-60 -72 0
65 73 0
-65 -73 0
70 74 0
-70 -74 0
81 77 0
-81 -77 0
86 78 0
-86 -78 0
91 79 0
-91 -79 0
96 80 0
-96 -80 0
77 81 0
-77 -81 0
87 83 0
-87 -83 0
92 84 0
-92 -84 0
97 85 0
-97 -85 0
78 86 0
-78 -86 0
83 87 0
-83 -87 0
93 89 0
-93 -89 0
98 90 0
-98 -90 0
79 91 0
-79 -91 0
84 92 0
-84 -92 0
89 93 0
-89 -93 0
99 95 0
-99 -95 0
80 96 0
-80 -96 0
85 97 0
-85 -97 0
90 98 0
-90 -98 0
95 99 0
-95 -99 0
106 102 0
-106 -102 0
111 103 0
-111 -103 0
116 104 0
-116 -104 0
121 105 0
-121 -105 0
102 106 0
-102 -106 0
112 108 0
-112 -108 0
117 109 0
-117 -109 0
122 110 0
-122 -110 0
103 111 0
-103 -111 0
108 112 0
-108 -112 0
118 114 0
-118 -114 0
123 115 0
-123 -115 0
104 116 0
-104 -116 0
109 117 0
-109 -117 0
114 118 0
-114 -118 0
124 120 0
-124 -120 0
105 121 0
-105 -121 0
110 122 0
-110 -122 0
115 123 0
-115 -123 0
120 124 0
-120 -124 0
131 127 0
-131 -127 0
136 128 0
-136 -128 0
141 129 0
-141 -129 0
146 130 0
-146 -130 0
127 131 0
-127 -131 0
137 133 0
-137 -133 0
142 134 0
-142 -134 0
147 135 0
-147 -135 0
128 136 0
-128 -136 0
133 137 0
-133 -137 0
143 139 0
-143 -139 0
148 140 0
-148 -140 0
129 141 0
-129 -141 0
134 142 0
-134 -142 0
139 143 0
-139 -143 0
149 145 0
-149 -145 0
130 146 0
-130 -146 0
135 147 0
-135 -147 0
140 148 0
-140 -148 0
145 149 0
-145 -149 0
156 152 0
-156 -152 0
161 153 0
-161 -153 0
166 154 0
-166 -154 0
171 155 0
-171 -155 0
152 156 0
-152 -156 0
162 158 0
-162 -158 0
167 159 0
-167 -159 0
172 160 0
-172 -160 0
153 161 0
-153 -161 0
158 162 0
-158 -162 0
168 164 0
-168 -164 0
173 165 0
-173 -165 0
154 166 0
-154 -166 0
159 167 0
-159 -167 0
164 168 0
-164 -168 0
174 170 0
-174 -170 0
155 171 0
-155 -171 0
160 172 0
-160 -172 0
165 173 0
-165 -173 0
170 174 0
-170 -174 0
181 177 0
-181 -177 0
186 178 0
-186 -178 0
191 179 0
-191 -179 0
196 180 0
-196 -180 0
177 181 0
-177 -181 0
187 183 0
-187 -183 0
192 184 0
-192 -184 0
197 185 0
-197 -185 0
178 186 0
-178 -186 0
183 187 0
-183 -187 0
193 189 0
-193 -189 0
198 190 0
-198 -190 0
179 191 0
-179 -191 0
184 192 0
-184 -192 0
189 193 0
-189 -193 0
199 195 0
-199 -195 0
180 196 0
-180 -196 0
185 197 0
-185 -197 0
190 198 0
-190 -198 0
195 199 0
-195 -199 0
206 202 0
-206 -202 0
211 203 0
-211 -203 0
216 204 0
-216 -204 0
221 205 0
-221 -205 0
202 206 0
-202 -206 0
212 208 0
-212 -208 0
217 209 0
-217 -209 0
222 210 0
-222 -210 0
203 211 0
-203 -211 0
208 212 0
-208 -212 0
218 214 0
-218 -214 0
223 215 0
-223 -215 0
204 216 0
-204 -216 0
209 217 0
-209 -217 0
214 218 0
-214 -218 0
224 220 0
-224 -220 0
205 221 0
-205 -221 0
210 222 0
-210 -222 0
215 223 0
-215 -223 0
220 224 0
-220 -224 0
-326 -338 0
-326 -350 0
-326 -362 0
-326 -374 0
-326 -386 0
-326 -398 0
-326 -410 0
-338 -350 0
-338 -362 0
-338 -374 0
-338 -386 0
-338 -398 0
-338 -410 0
-350 -362 0
-350 -374 0
-350 -386 0
-350 -398 0
-350 -410 0
-362 -374 0
-362 -386 0
-362 -398 0
-362 -410 0
-374 -386 0
-374 -398 0
-374 -410 0
-386 -398 0
-386 -410 0
-398 -410 0
-327 -339 0
-327 -351 0
-327 -363 0
-327 -375 0
-327 -387 0
-327 -399 0
-327 -411 0
-339 -351 0
-339 -363 0
-339 -375 0
-339 -387 0
-339 -399 0
-339 -411 0
-351 -363 0
-351 -375 0
-351 -387 0
-351 -399 0
-351 -411 0
-363 -375 0
-363 -387 0
-363 -399 0
-363 -411 0
-375 -387 0
-375 -399 0
-375 -411 0
-387 -399 0
-387 -411 0
-399 -411 0
-328 -340 0
-328 -352 0
-328 -364 0
-328 -376 0
-328 -388 0
-328 -400 0
-328 -412 0
-340 -352 0
-340 -364 0
-340 -376 0
-340 -388 0
-340 -400 0
-340 -412 0
-352 -364 0
-352 -376 0
-352 -388 0
-352 -400 0
-352 -412 0
-364 -376 0
-364 -388 0
-364 -400 0
-364 -412 0
-376 -388 0
-376 -400 0
-376 -412 0
-388 -400 0
-388 -412 0
-400 -412 0
-329 -341 0
-329 -353 0
-329 -365 0
-329 -377 0
-329 -389 0
-329 -401 0
-329 -413 0
-341 -353 0
-341 -365 0
-341 -377 0
-341 -389 0
-341 -401 0
-341 -413 0
-353 -365 0
-353 -377 0
-353 -389 0
-353 -401 0
-353 -413 0
-365 -377 0
-365 -389 0
-365 -401 0
-365 -413 0
-377 -389 0
-377 -401 0
-377 -413 0
-389 -401 0
-389 -413 0
-401 -413 0
-330 -342 0
-330 -354 0
-330 -366 0
-330 -378 0
-330 -390 0
-330 -402 0
-330 -414 0
-342 -354 0
-342 -366 0
-342 -378 0
-342 -390 0
-342 -402 0
-342 -414 0
-354 -366 0
-354 -378 0
-354 -390 0
-354 -402 0
-354 -414 0
-366 -378 0
-366 -390 0
-366 -402 0
-366 -414 0
-378 -390 0
-378 -402 0
-378 -414 0
-390 -402 0
-390 -414 0
-402 -414 0
-331 -343 0
-331 -355 0
-331 -367 0
-331 -379 0
-331 -391 0
-331 -403 0
-331 -415 0
-343 -355 0
-343 -367 0
-343 -379 0
-343 -391 0
-343 -403 0
-343 -415 0
-355 -367 0
-355 -379 0
-355 -391 0
-355 -403 0
-355 -415 0
-367 -379 0
-367 -391 0
-367 -403 0
-367 -415 0
-379 -391 0
-379 -403 0
-379 -415 0
-391 -403 0
-391 -415 0
-403 -415 0
-332 -344 0
-332 -356 0
-332 -368 0
-332 -380 0
-332 -392 0
-332 -404 0
-332 -416 0
-344 -356 0
-344 -368 0
-344 -380 0
-344 -392 0
-344 -404 0
-344 -416 0
-356 -368 0
-356 -380 0
-356 -392 0
-356 -404 0
-356 -416 0
-368 -380 0
-368 -392 0
-368 -404 0
-368 -416 0
-380 -392 0
-380 -404 0
-380 -416 0
-392 -404 0
-392 -416 0
-404 -416 0
-333 -345 0
-333 -357 0
-333 -369 0
-333 -381 0
-333 -393 0
-333 -405 0
-333 -417 0
-345 -357 0
-345 -369 0
-345 -381 0
-345 -393 0
-345 -405 0
-345 -417 0
-357 -369 0
-357 -381 0
-357 -393 0
-357 -405 0
-357 -417 0
-369 -381 0
-369 -393 0
-369 -405 0
-369 -417 0
-381 -393 0
-381 -405 0
-381 -417 0
-393 -405 0
-393 -417 0
-405 -417 0
-334 -346 0
-334 -358 0
-334 -370 0
-334 -382 0
-334 -394 0
-334 -406 0
-334 -418 0
-346 -358 0
-346 -370 0
-346 -382 0
-346 -394 0
-346 -406 0
-346 -418 0
-358 -370 0
-358 -382 0
-358 -394 0
-358 -406 0
-358 -418 0
-370 -382 0
-370 -394 0
-370 -406 0
-370 -418 0
-382 -394 0
-382 -406 0
-382 -418 0
-394 -406 0
-394 -418 0
-406 -418 0
-335 -347 0
-335 -359 0
-335 -371 0
-335 -383 0
-335 -395 0
-335 -407 0
-335 -419 0
-347 -359 0
-347 -371 0
-347 -383 0
-347 -395 0
-347 -407 0
-347 -419 0
-359 -371 0
-359 -383 0
-359 -395 0
-359 -407 0
-359 -419 0
-371 -383 0
-371 -395 0
-371 -407 0
-371 -419 0
-383 -395 0
-383 -407 0
-383 -419 0
-395 -407 0
-395 -419 0
-407 -419 0
-336 -348 0
-336 -360 0
-336 -372 0
-336 -384 0
-336 -396 0
-336 -408 0
-336 -420 0
-348 -360 0
-348 -372 0
-348 -384 0
-348 -396 0
-348 -408 0
-348 -420 0
-360 -372 0
-360 -384 0
-360 -396 0
-360 -408 0
-360 -420 0
-372 -384 0
-372 -396 0
-372 -408 0
-372 -420 0
-384 -396 0
-384 -408 0
-384 -420 0
-396 -408 0
-396 -420 0
-408 -420 0
-337 -349 0
-337 -361 0
-337 -373 0
-337 -385 0
-337 -397 0
-337 -409 0
-337 -421 0
-349 -361 0
-349 -373 0
-349 -385 0
-349 -397 0
-349 -409 0
-349 -421 0
-361 -373 0
-361 -385 0
-361 -397 0
-361 -409 0
-361 -421 0
-373 -385 0
-373 -397 0
-373 -409 0
-373 -421 0
-385 -397 0
-385 -409 0
-385 -421 0
-397 -409 0
-397 -421 0
-409 -421 0
326 338 350 362 374 386 398 410 0
327 339 351 363 375 387 399 411 0
328 340 352 364 376 388 400 412 0
329 341 353 365 377 389 401 413 0
330 342 354 366 378 390 402 414 0
331 343 355 367 379 391 403 415 0
332 344 356 368 380 392 404 416 0
333 345 357 369 381 393 405 417 0
334 346 358 370 382 394 406 418 0
335 347 359 371 383 395 407 419 0
336 348 360 372 384 396 408 420 0
337 349 361 373 385 397 409 421 0
-326 -12 -37 0
-326 12 37 0
-338 -37 -62 0
-338 37 62 0
-350 -62 -87 0
-350 62 87 0
-362 -87 -112 0
-362 87 112 0
-374 -112 -137 0
-374 112 137 0
-386 -137 -162 0
-386 137 162 0
-398 -162 -187 0
-398 162 187 0
-410 -187 -212 0
-410 187 212 0
-327 -12 -37 0
-327 12 37 0
-339 -37 -62 0
-339 37 62 0
-351 -62 -87 0
-351 62 87 0
-363 -87 -112 0
-363 87 112 0
-375 -112 -137 0
-375 112 137 0
-387 -137 -162 0
-387 137 162 0
-399 -162 -187 0
-399 162 187 0
-411 -187 -212 0
-411 187 212 0
-328 -17 -42 0
-328 17 42 0
-340 -42 -67 0
-340 42 67 0
-352 -67 -92 0
-352 67 92 0
-364 -92 -117 0
-364 92 117 0
-376 -117 -142 0
-376 117 142 0
-388 -142 -167 0
-388 142 167 0
-400 -167 -192 0
-400 167 192 0
-412 -192 -217 0
-412 192 217 0
-329 -22 -47 0
-329 22 47 0
-341 -47 -72 0
-341 47 72 0
-353 -72 -97 0
-353 72 97 0
-365 -97 -122 0
-365 97 122 0
-377 -122 -147 0
-377 122 147 0
-389 -147 -172 0
-389 147 172 0
-401 -172 -197 0
-401 172 197 0
-413 -197 -222 0
-413 197 222 0
-330 -22 -47 0
-330 22 47 0
-342 -47 -72 0
-342 47 72 0
-354 -72 -97 0
-354 72 97 0
-366 -97 -122 0
-366 97 122 0
-378 -122 -147 0
-378 122 147 0
-390 -147 -172 0
-390 147 172 0
-402 -172 -197 0
-402 172 197 0
-414 -197 -222 0
-414 197 222 0
-331 -22 -47 0
-331 22 47 0
-343 -47 -72 0
-343 47 72 0
-355 -72 -97 0
-355 72 97 0
-367 -97 -122 0
-367 97 122 0
-379 -122 -147 0
-379 122 147 0
-391 -147 -172 0
-391 147 172 0
-403 -172 -197 0
-403 172 197 0
-415 -197 -222 0
-415 197 222 0
-332 -18 -43 0
-332 18 43 0
-344 -43 -68 0
-344 43 68 0
-356 -68 -93 0
-356 68 93 0
-368 -93 -118 0
-368 93 118 0
-380 -118 -143 0
-380 118 143 0
-392 -143 -168 0
-392 143 168 0
-404 -168 -193 0
-404 168 193 0
-416 -193 -218 0
-416 193 218 0
-333 -23 -48 0
-333 23 48 0
-345 -48 -73 0
-345 48 73 0
-357 -73 -98 0
-357 73 98 0
-369 -98 -123 0
-369 98 123 0
-381 -123 -148 0
-381 123 148 0
-393 -148 -173 0
-393 148 173 0
-405 -173 -198 0
-405 173 198 0
-417 -198 -223 0
-417 198 223 0
-334 -23 -48 0
-334 23 48 0
-346 -48 -73 0
-346 48 73 0
-358 -73 -98 0
-358 73 98 0
-370 -98 -123 0
-370 98 123 0
-382 -123 -148 0
-382 123 148 0
-394 -148 -173 0
-394 148 173 0
-406 -173 -198 0
-406 173 198 0
-418 -198 -223 0
-418 198 223 0
-335 -23 -48 0
-335 23 48 0
-347 -48 -73 0
-347 48 73 0
-359 -73 -98 0
-359 73 98 0
-371 -98 -123 0
-371 98 123 0
-383 -123 -148 0
-383 123 148 0
-395 -148 -173 0
-395 148 173 0
-407 -173 -198 0
-407 173 198 0
-419 -198 -223 0
-419 198 223 0
-336 -24 -49 0
-336 24 49 0
-348 -49 -74 0
-348 49 74 0
-360 -74 -99 0
-360 74 99 0
-372 -99 -124 0
-372 99 124 0
-384 -124 -149 0
-384 124 149 0
-396 -149 -174 0
-396 149 174 0
-408 -174 -199 0
-408 174 199 0
-420 -199 -224 0
-420 199 224 0
-337 -24 -49 0
-337 24 49 0
-349 -49 -74 0
-349 49 74 0
-361 -74 -99 0
-361 74 99 0
-373 -99 -124 0
-373 99 124 0
-385 -124 -149 0
-385 124 149 0
-397 -149 -174 0
-397 149 174 0
-409 -174 -199 0
-409 174 199 0
-421 -199 -224 0
-421 199 224 0
-6 31 0
6 -31 0
-11 36 0
11 -36 0
-16 41 0
16 -41 0
-21 46 0
21 -46 0
-12 37 326 327 0
12 -37 326 327 0
-17 42 328 0
17 -42 328 0
-22 47 329 330 331 0
22 -47 329 330 331 0
-18 43 332 0
18 -43 332 0
-23 48 333 334 335 0
23 -48 333 334 335 0
-24 49 336 337 0
24 -49 336 337 0
-31 56 0
31 -56 0
-36 61 0
36 -61 0
-41 66 0
41 -66 0
-46 71 0
46 -71 0
-37 62 338 339 0
37 -62 338 339 0
-42 67 340 0
42 -67 340 0
-47 72 341 342 343 0
47 -72 341 342 343 0
-43 68 344 0
43 -68 344 0
-48 73 345 346 347 0
48 -73 345 346 347 0
-49 74 348 349 0
49 -74 348 349 0
-56 81 0
56 -81 0
-61 86 0
61 -86 0
-66 91 0
66 -91 0
-71 96 0
71 -96 0
-62 87 350 351 0
62 -87 350 351 0
-67 92 352 0
67 -92 352 0
-72 97 353 354 355 0
72 -97 353 354 355 0
-68 93 356 0
68 -93 356 0
-73 98 357 358 359 0
73 -98 357 358 359 0
-74 99 360 361 0
74 -99 360 361 0
-81 106 0
81 -106 0
-86 111 0
86 -111 0
-91 116 0
91 -116 0
-96 121 0
96 -121 0
-87 112 362 363 0
87 -112 362 363 0
-92 117 364 0
92 -117 364 0
-97 122 365 366 367 0
97 -122 365 366 367 0
-93 118 368 0
93 -118 368 0
-98 123 369 370 371 0
98 -123 369 370 371 0
-99 124 372 373 0
99 -124 372 373 0
-106 131 0
106 -131 0
-111 136 0
111 -136 0
-116 141 0
116 -141 0
-121 146 0
121 -146 0
-112 137 374 375 0
112 -137 374 375 0
-117 142 376 0
117 -142 376 0
-122 147 377 378 379 0
122 -147 377 378 379 0
-118 143 380 0
118 -143 380 0
-123 148 381 382 383 0
123 -148 381 382 383 0
-124 149 384 385 0
124 -149 384 385 0
-131 156 0
131 -156 0
-136 161 0
136 -161 0
-141 166 0
141 -166 0
-146 171 0
146 -171 0
-137 162 386 387 0
137 -162 386 387 0
-142 167 388 0
142 -167 388 0
-147 172 389 390 391 0
147 -172 389 390 391 0
-143 168 392 0
143 -168 392 0
-148 173 393 394 395 0
148 -173 393 394 395 0
-149 174 396 397 0
149 -174 396 397 0
-156 181 0
156 -181 0
-161 186 0
161 -186 0
-166 191 0
166 -191 0
-171 196 0
171 -196 0
-162 187 398 399 0
162 -187 398 399 0
-167 192 400 0
167 -192 400 0
-172 197 401 402 403 0
172 -197 401 402 403 0
-168 193 404 0
168 -193 404 0
-173 198 405 406 407 0
173 -198 405 406 407 0
-174 199 408 409 0
174 -199 408 409 0
-181 206 0
181 -206 0
-186 211 0
186 -211 0
-191 216 0
191 -216 0
-196 221 0
196 -221 0
-187 212 410 411 0
187 -212 410 411 0
-192 217 412 0
192 -217 412 0
-197 222 413 414 415 0
197 -222 413 414 415 0
-193 218 416 0
193 -218 416 0
-198 223 417 418 419 0
198 -223 417 418 419 0
-199 224 420 421 0
199 -224 420 421 0
-326 -327 0
-326 -328 0
-326 -329 0
-326 -330 0
-326 -331 0
-326 -332 0
-326 -333 0
-326 -334 0
-326 -335 0
-327 -326 0
-327 -328 0
-327 -329 0
-327 -330 0
-327 -331 0
-327 -332 0
-327 -333 0
-327 -334 0
-327 -335 0
-328 -326 0
-328 -327 0
-328 -329 0
-328 -330 0
-328 -331 0
-328 -332 0
-328 -336 0
-328 -337 0
-329 -326 0
-329 -327 0
-329 -328 0
-329 -330 0
-329 -331 0
-329 -333 0
-329 -334 0
-329 -335 0
-329 -336 0
-329 -337 0
-330 -326 0
-330 -327 0
-330 -328 0
-330 -329 0
-330 -331 0
-330 -333 0
-330 -334 0
-330 -335 0
-330 -336 0
-330 -337 0
-331 -326 0
-331 -327 0
-331 -328 0
-331 -329 0
-331 -330 0
-331 -333 0
-331 -334 0
-331 -335 0
-331 -336 0
-331 -337 0
-332 -326 0
-332 -327 0
-332 -328 0
-332 -333 0
-332 -334 0
-332 -335 0
-332 -336 0
-332 -337 0
-333 -326 0
-333 -327 0
-333 -329 0
-333 -330 0
-333 -331 0
-333 -332 0
-333 -334 0
-333 -335 0
-333 -336 0
-333 -337 0
-334 -326 0
-334 -327 0
-334 -329 0
-334 -330 0
-334 -331 0
-334 -332 0
-334 -333 0
-334 -335 0
-334 -336 0
-334 -337 0
-335 -326 0
-335 -327 0
-335 -329 0
-335 -330 0
-335 -331 0
-335 -332 0
-335 -333 0
-335 -334 0
-335 -336 0
-335 -337 0
-336 -328 0
-336 -329 0
-336 -330 0
-336 -331 0
-336 -332 0
-336 -333 0
-336 -334 0
-336 -335 0
-336 -337 0
-337 -328 0
-337 -329 0
-337 -330 0
-337 -331 0
-337 -332 0
-337 -333 0
-337 -334 0
-337 -335 0
-337 -336 0
-338 -339 0
-338 -340 0
-338 -341 0
-338 -342 0
-338 -343 0
-338 -344 0
-338 -345 0
-338 -346 0
-338 -347 0
-339 -338 0
-339 -340 0
-339 -341 0
-339 -342 0
-339 -343 0
-339 -344 0
-339 -345 0
-339 -346 0
-339 -347 0
-340 -338 0
-340 -339 0
-340 -341 0
-340 -342 0
-340 -343 0
-340 -344 0
-340 -348 0
-340 -349 0
-341 -338 0
-341 -339 0
-341 -340 0
-341 -342 0
-341 -343 0
-341 -345 0
-341 -346 0
-341 -347 0
-341 -348 0
-341 -349 0
-342 -338 0
-342 -339 0
-342 -340 0
-342 -341 0
-342 -343 0
-342 -345 0
-342 -346 0
-342 -347 0
-342 -348 0
-342 -349 0
-343 -338 0
-343 -339 0
-343 -340 0
-343 -341 0
-343 -342 0
-343 -345 0
-343 -346 0
-343 -347 0
-343 -348 0
-343 -349 0
-344 -338 0
-344 -339 0
-344 -340 0
-344 -345 0
-344 -346 0
-344 -347 0
-344 -348 0
-344 -349 0
-345 -338 0
-345 -339 0
-345 -341 0
-345 -342 0
-345 -343 0
-345 -344 0
-345 -346 0
-345 -347 0
-345 -348 0
-345 -349 0
-346 -338 0
-346 -339 0
-346 -341 0
-346 -342 0
-346 -343 0
-346 -344 0
-346 -345 0
-346 -347 0
-346 -348 0
-346 -349 0
-347 -338 0
-347 -339 0
-347 -341 0
-347 -342 0
-347 -343 0
-347 -344 0
-347 -345 0
-347 -346 0
-347 -348 0
-347 -349 0
-348 -340 0
-348 -341 0
-348 -342 0
-348 -343 0
-348 -344 0
-348 -345 0
-348 -346 0
-348 -347 0
-348 -349 0
-349 -340 0
-349 -341 0
-349 -342 0
-349 -343 0
-349 -344 0
-349 -345 0
-349 -346 0
-349 -347 0
-349 -348 0
-350 -351 0
-350 -352 0
-350 -353 0
-350 -354 0
-350 -355 0
-350 -356 0
-350 -357 0
-350 -358 0
-350 -359 0
-351 -350 0
-351 -352 0
-351 -353 0
-351 -354 0
-351 -355 0
-351 -356 0
-351 -357 0
-351 -358 0
-351 -359 0
-352 -350 0
-352 -351 0
-352 -353 0
-352 -354 0
-352 -355 0
-352 -356 0
-352 -360 0
-352 -361 0
-353 -350 0
-353 -351 0
-353 -352 0
-353 -354 0
-353 -355 0
-353 -357 0
-353 -358 0
-353 -359 0
-353 -360 0
-353 -361 0
-354 -350 0
-354 -351 0
-354 -352 0
-354 -353 0
-354 -355 0
-354 -357 0
-354 -358 0
-354 -359 0
-354 -360 0
-354 -361 0
-355 -350 0
-355 -351 0
-355 -352 0
-355 -353 0
-355 -354 0
-355 -357 0
-355 -358 0
-355 -359 0
-355 -360 0
-355 -361 0
-356 -350 0
-356 -351 0
-356 -352 0
-356 -357 0
-356 -358 0
-356 -359 0
-356 -360 0
-356 -361 0
-357 -350 0
-357 -351 0
-357 -353 0
-357 -354 0
-357 -355 0
-357 -356 0
-357 -358 0
-357 -359 0
-357 -360 0
-357 -361 0
-358 -350 0
-358 -351 0
-358 -353 0
-358 -354 0
-358 -355 0
-358 -356 0
-358 -357 0
-358 -359 0
-358 -360 0
-358 -361 0
-359 -350 0
-359 -351 0
-359 -353 0
-359 -354 0
-359 -355 0
-359 -356 0
-359 -357 0
-359 -358 0
-359 -360 0
-359 -361 0
-360 -352 0
-360 -353 0
-360 -354 0
-360 -355 0
-360 -356 0
-360 -357 0
-360 -358 0
-360 -359 0
-360 -361 0
-361 -352 0
-361 -353 0
-361 -354 0
-361 -355 0
-361 -356 0
-361 -357 0
-361 -358 0
-361 -359 0
-361 -360 0
-362 -363 0
-362 -364 0
-362 -365 0
-362 -366 0
-362 -367 0
-362 -368 0
-362 -369 0
-362 -370 0
-362 -371 0
-363 -362 0
-363 -364 0
-363 -365 0
-363 -366 0
-363 -367 0
-363 -368 0
-363 -369 0
-363 -370 0
-363 -371 0
-364 -362 0
-364 -363 0
-364 -365 0
-364 -366 0
-364 -367 0
-364 -368 0
-364 -372 0
-364 -373 0
-365 -362 0
-365 -363 0
-365 -364 0
-365 -366 0
-365 -367 0
-365 -369 0
-365 -370 0
-365 -371 0
-365 -372 0
-365 -373 0
-366 -362 0
-366 -363 0
-366 -364 0
-366 -365 0
-366 -367 0
-366 -369 0
-366 -370 0
-366 -371 0
-366 -372 0
-366 -373 0
-367 -362 0
-367 -363 0
-367 -364 0
-367 -365 0
-367 -366 0
-367 -369 0
-367 -370 0
-367 -371 0
-367 -372 0
-367 -373 0
-368 -362 0
-368 -363 0
-368 -364 0
-368 -369 0
-368 -370 0
-368 -371 0
-368 -372 0
-368 -373 0
-369 -362 0
-369 -363 0
-369 -365 0
-369 -366 0
-369 -367 0
-369 -368 0
-369 -370 0
-369 -371 0
-369 -372 0
-369 -373 0
-370 -362 0
-370 -363 0
-370 -365 0
-370 -366 0
-370 -367 0
-370 -368 0
-370 -369 0
-370 -371 0
-370 -372 0
-370 -373 0
-371 -362 0
-371 -363 0
-371 -365 0
-371 -366 0
-371 -367 0
-371 -368 0
-371 -369 0
-371 -370 0
-371 -372 0
-371 -373 0
-372 -364 0
-372 -365 0
-372 -366 0
-372 -367 0
-372 -368 0
-372 -369 0
-372 -370 0
-372 -371 0
-372 -373 0
-373 -364 0
-373 -365 0
-373 -366 0
-373 -367 0
-373 -368 0
-373 -369 0
-373 -370 0
-373 -371 0
-373 -372 0
-374 -375 0
-374 -376 0
-374 -377 0
-374 -378 0
-374 -379 0
-374 -380 0
-374 -381 0
-374 -382 0
-374 -383 0
-375 -374 0
-375 -376 0
-375 -377 0
-375 -378 0
-375 -379 0
-375 -380 0
-375 -381 0
-375 -382 0
-375 -383 0
-376 -374 0
-376 -375 0
-376 -377 0
-376 -378 0
-376 -379 0
-376 -380 0
-376 -384 0
-376 -385 0
-377 -374 0
-377 -375 0
-377 -376 0
-377 -378 0
-377 -379 0
-377 -381 0
-377 -382 0
-377 -383 0
-377 -384 0
-377 -385 0
-378 -374 0
-378 -375 0
-378 -376 0
-378 -377 0
-378 -379 0
-378 -381 0
-378 -382 0
-378 -383 0
-378 -384 0
-378 -385 0
-379 -374 0
-379 -375 0
-379 -376 0
-379 -377 0
-379 -378 0
-379 -381 0
-379 -382 0
-379 -383 0
-379 -384 0
-379 -385 0
-380 -374 0
-380 -375 0
-380 -376 0
-380 -381 0
-380 -382 0
-380 -383 0
-380 -384 0
-380 -385 0
-381 -374 0
-381 -375 0
-381 -377 0
-381 -378 0
-381 -379 0
-381 -380 0
-381 -382 0
-381 -383 0
-381 -384 0
-381 -385 0
-382 -374 0
-382 -375 0
-382 -377 0
-382 -378 0
-382 -379 0
-382 -380 0
-382 -381 0
-382 -383 0
-382 -384 0
-382 -385 0
-383 -374 0
-383 -375 0
-383 -377 0
-383 -378 0
-383 -379 0
-383 -380 0
-383 -381 0
-383 -382 0
-383 -384 0
-383 -385 0
-384 -376 0
-384 -377 0
-384 -378 0
-384 -379 0
-384 -380 0
-384 -381 0
-384 -382 0
-384 -383 0
-384 -385 0
-385 -376 0
-385 -377 0
-385 -378 0
-385 -379 0
-385 -380 0
-385 -381 0
-385 -382 0
-385 -383 0
-385 -384 0
-386 -387 0
-386 -388 0
-386 -389 0
-386 -390 0
-386 -391 0
-386 -392 0
-386 -393 0
-386 -394 0
-386 -395 0
-387 -386 0
-387 -388 0
-387 -389 0
-387 -390 0
-387 -391 0
-387 -392 0
-387 -393 0
-387 -394 0
-387 -395 0
-388 -386 0
-388 -387 0
-388 -389 0
-388 -390 0
-388 -391 0
-388 -392 0
-388 -396 0
-388 -397 0
-389 -386 0
-389 -387 0
-389 -388 0
-389 -390 0
-389 -391 0
-389 -393 0
-389 -394 0
-389 -395 0
-389 -396 0
-389 -397 0
-390 -386 0
-390 -387 0
-390 -388 0
-390 -389 0
-390 -391 0
-390 -393 0
-390 -394 0
-390 -395 0
-390 -396 0
-390 -397 0
-391 -386 0
-391 -387 0
-391 -388 0
-391 -389 0
-391 -390 0
-391 -393 0
-391 -394 0
-391 -395 0
-391 -396 0
-391 -397 0
-392 -386 0
-392 -387 0
-392 -388 0
-392 -393 0
-392 -394 0
-392 -395 0
-392 -396 0
-392 -397 0
-393 -386 0
-393 -387 0
-393 -389 0
-393 -390 0
-393 -391 0
-393 -392 0
-393 -394 0
-393 -395 0
-393 -396 0
-393 -397 0
-394 -386 0
-394 -387 0
-394 -389 0
-394 -390 0
-394 -391 0
-394 -392 0
-394 -393 0
-394 -395 0
-394 -396 0
-394 -397 0
-395 -386 0
-395 -387 0
-395 -389 0
-395 -390 0
-395 -391 0
-395 -392 0
-395 -393 0
-395 -394 0
-395 -396 0
-395 -397 0
-396 -388 0
-396 -389 0
-396 -390 0
-396 -391 0
-396 -392 0
-396 -393 0
-396 -394 0
-396 -395 0
-396 -397 0
-397 -388 0
-397 -389 0
-397 -390 0
-397 -391 0
-397 -392 0
-397 -393 0
-397 -394 0
-397 -395 0
-397 -396 0
-398 -399 0
-398 -400 0
-398 -401 0
-398 -402 0
-398 -403 0
-398 -404 0
-398 -405 0
-398 -406 0
-398 -407 0
-399 -398 0
-399 -400 0
-399 -401 0
-399 -402 0
-399 -403 0
-399 -404 0
-399 -405 0
-399 -406 0
-399 -407 0
-400 -398 0
-400 -399 0
-400 -401 0
-400 -402 0
-400 -403 0
-400 -404 0
-400 -408 0
-400 -409 0
-401 -398 0
-401 -399 0
-401 -400 0
-401 -402 0
-401 -403 0
-401 -405 0
-401 -406 0
-401 -407 0
-401 -408 0
-401 -409 0
-402 -398 0
-402 -399 0
-402 -400 0
-402 -401 0
-402 -403 0
-402 -405 0
-402 -406 0
-402 -407 0
-402 -408 0
-402 -409 0
-403 -398 0
-403 -399 0
-403 -400 0
-403 -401 0
-403 -402 0
-403 -405 0
-403 -406 0
-403 -407 0
-403 -408 0
-403 -409 0
-404 -398 0
-404 -399 0
-404 -400 0
-404 -405 0
-404 -406 0
-404 -407 0
-404 -408 0
-404 -409 0
-405 -398 0
-405 -399 0
-405 -401 0
-405 -402 0
-405 -403 0
-405 -404 0
-405 -406 0
-405 -407 0
-405 -408 0
-405 -409 0
-406 -398 0
-406 -399 0
-406 -401 0
-406 -402 0
-406 -403 0
-406 -404 0
-406 -405 0
-406 -407 0
-406 -408 0
-406 -409 0
-407 -398 0
-407 -399 0
-407 -401 0
-407 -402 0
-407 -403 0
-407 -404 0
-407 -405 0
-407 -406 0
-407 -408 0
-407 -409 0
-408 -400 0
-408 -401 0
-408 -402 0
-408 -403 0
-408 -404 0
-408 -405 0
-408 -406 0
-408 -407 0
-408 -409 0
-409 -400 0
-409 -401 0
-409 -402 0
-409 -403 0
-409 -404 0
-409 -405 0
-409 -406 0
-409 -407 0
-409 -408 0
-410 -411 0
-410 -412 0
-410 -413 0
-410 -414 0
-410 -415 0
-410 -416 0
-410 -417 0
-410 -418 0
-410 -419 0
-411 -410 0
-411 -412 0
-411 -413 0
-411 -414 0
-411 -415 0
-411 -416 0
-411 -417 0
-411 -418 0
-411 -419 0
-412 -410 0
-412 -411 0
-412 -413 0
-412 -414 0
-412 -415 0
-412 -416 0
-412 -420 0
-412 -421 0
-413 -410 0
-413 -411 0
-413 -412 0
-413 -414 0
-413 -415 0
-413 -417 0
-413 -418 0
-413 -419 0
-413 -420 0
-413 -421 0
-414 -410 0
-414 -411 0
-414 -412 0
-414 -413 0
-414 -415 0
-414 -417 0
-414 -418 0
-414 -419 0
-414 -420 0
-414 -421 0
-415 -410 0
-415 -411 0
-415 -412 0
-415 -413 0
-415 -414 0
-415 -417 0
-415 -418 0
-415 -419 0
-415 -420 0
-415 -421 0
-416 -410 0
-416 -411 0
-416 -412 0
-416 -417 0
-416 -418 0
-416 -419 0
-416 -420 0
-416 -421 0
-417 -410 0
-417 -411 0
-417 -413 0
-417 -414 0
-417 -415 0
-417 -416 0
-417 -418 0
-417 -419 0
-417 -420 0
-417 -421 0
-418 -410 0
-418 -411 0
-418 -413 0
-418 -414 0
-418 -415 0
-418 -416 0
-418 -417 0
-418 -419 0
-418 -420 0
-418 -421 0
-419 -410 0
-419 -411 0
-419 -413 0
-419 -414 0
-419 -415 0
-419 -416 0
-419 -417 0
-419 -418 0
-419 -420 0
-419 -421 0
-420 -412 0
-420 -413 0
-420 -414 0
-420 -415 0
-420 -416 0
-420 -417 0
-420 -418 0
-420 -419 0
-420 -421 0
-421 -412 0
-421 -413 0
-421 -414 0
-421 -415 0
-421 -416 0
-421 -417 0
-421 -418 0
-421 -419 0
-421 -420 0